 200 35 
 38 65 30 79 13 24 12 1 80 38 15 72 
 26 13 15 15 99 52 25 5 52 65 63 61 
 27 63 21 62 19 48 73 60 8 75 70 
 30 
 1 2 3 4 5 6 8 9 10 11 12 13 
 15 16 17 18 19 20 21 22 25 26 27 28 
 29 30 32 33 34 35 
 29 
 1 4 5 6 7 8 9 11 12 14 15 16 
 17 18 19 20 21 22 23 24 26 27 28 29 
 30 31 32 34 35 
 30 
 2 4 5 6 8 9 10 11 12 13 14 15 
 16 17 18 19 20 21 23 24 25 26 27 28 
 29 30 31 32 33 34 
 26 
 1 3 7 8 9 12 13 14 16 17 18 19 
 20 22 24 25 26 27 28 29 30 31 32 33 
 34 35 
 26 
 3 4 6 7 8 10 11 12 13 15 16 17 
 18 21 22 24 25 26 27 29 30 31 32 33 
 34 35 
 29 
 1 3 4 5 6 7 8 9 10 11 12 14 
 15 16 18 19 21 22 23 24 25 26 28 29 
 30 31 32 33 34 
 3 
 3 30 33 
 4 
 22 27 28 34 
 7 
 1 5 11 13 27 31 32 
 18 
 1 5 6 7 9 11 14 16 19 20 21 23 
 25 27 30 31 32 33 
 19 
 2 4 6 7 8 10 12 14 16 17 20 23 
 24 25 27 31 32 33 34 
 21 
 1 2 4 5 7 10 12 13 14 15 16 18 
 19 20 21 22 23 25 32 33 35 
 13 
 1 2 5 7 8 9 10 11 18 19 29 32 
 33 
 30 
 1 2 3 4 6 7 8 9 10 11 12 13 
 14 16 17 18 19 20 21 22 23 26 27 29 
 30 31 32 33 34 35 
 8 
 1 4 6 15 19 24 26 29 
 23 
 1 2 3 5 6 9 11 12 13 14 16 17 
 20 22 23 24 25 26 27 28 29 32 35 
 10 
 5 8 10 14 15 20 28 29 31 33 
 33 
 1 2 3 4 5 6 8 9 10 11 12 13 
 14 15 16 17 19 20 21 22 23 24 25 26 
 27 28 29 30 31 32 33 34 35 
 2 
 5 21 
 17 
 5 6 10 11 13 15 19 22 23 24 25 26 
 28 30 31 33 35 
 20 
 1 4 7 8 10 11 13 15 16 17 18 19 
 20 22 23 25 26 27 30 32 
 4 
 22 25 32 35 
 5 
 9 10 11 13 26 
 19 
 1 3 5 7 9 11 12 14 15 16 17 19 
 20 22 23 28 32 33 34 
 7 
 2 19 21 26 27 29 30 
 30 
 1 3 4 5 6 7 8 9 10 11 12 13 
 14 15 17 18 19 20 21 23 24 25 26 28 
 29 31 32 33 34 35 
 29 
 1 2 3 4 5 7 8 9 10 11 12 13 
 14 15 16 17 18 19 24 25 26 27 28 30 
 31 32 33 34 35 
 10 
 4 11 14 15 16 17 21 25 28 33 
 15 
 1 4 7 8 11 12 14 15 17 18 24 29 
 30 33 34 
 28 
 1 2 3 4 5 6 7 8 9 13 14 15 
 16 17 19 20 21 22 23 24 25 27 30 31 
 32 33 34 35 
 8 
 3 10 11 14 20 23 29 33 
 29 
 1 2 4 5 6 7 8 9 10 12 13 14 
 15 16 18 19 22 23 24 25 26 27 28 29 
 30 31 33 34 35 
 12 
 1 4 5 6 8 12 14 15 16 26 27 35 
 26 
 2 3 4 6 8 9 10 11 12 14 15 16 
 17 18 19 20 22 23 24 26 28 29 30 31 
 33 35 
 33 
 1 2 3 4 5 6 7 8 9 10 11 12 
 13 14 15 16 17 19 20 22 23 24 25 26 
 27 28 29 30 31 32 33 34 35 
 2 
 3 34 
 8 
 4 14 17 20 28 30 31 34 
 11 
 7 11 14 16 19 23 24 25 27 28 29 
 5 
 9 15 16 25 32 
 15 
 1 3 4 6 7 9 12 19 22 24 25 26 
 30 33 35 
 2 
 1 10 
 24 
 2 5 6 7 8 9 10 11 12 13 15 16 
 18 20 21 22 23 26 27 28 30 31 33 35 
 13 
 6 7 11 13 15 16 18 21 26 28 30 33 
 35 
 27 
 1 3 4 6 7 8 10 11 12 13 14 15 
 16 17 18 19 20 21 23 24 27 28 29 31 
 32 34 35 
 31 
 1 3 4 5 6 7 8 9 10 11 12 13 
 14 16 17 18 19 21 22 23 24 25 27 28 
 29 30 31 32 33 34 35 
 21 
 1 2 5 7 8 9 11 12 13 14 15 16 
 17 19 23 27 29 30 32 33 34 
 23 
 2 3 4 6 7 8 9 10 12 13 15 17 
 18 19 20 21 24 28 31 32 33 34 35 
 23 
 2 3 4 8 10 11 12 13 14 15 16 17 
 18 19 21 22 23 26 27 28 29 32 34 
 8 
 3 6 12 14 16 20 27 29 
 27 
 1 2 3 4 7 9 10 11 12 14 15 16 
 17 18 19 22 24 25 26 27 28 29 30 31 
 32 34 35 
 21 
 1 2 3 4 6 10 11 13 14 15 17 18 
 22 23 26 27 30 31 32 34 35 
 15 
 1 2 3 7 8 9 11 16 17 18 20 22 
 23 29 34 
 12 
 3 6 12 13 17 18 19 24 25 28 29 33 
 22 
 2 3 5 7 9 12 13 15 17 18 19 20 
 21 22 23 24 26 29 30 32 33 35 
 11 
 3 7 12 20 21 22 24 26 28 29 35 
 7 
 1 2 6 19 30 31 34 
 14 
 1 7 8 9 11 14 17 19 20 21 26 27 
 29 33 
 25 
 2 5 6 7 8 10 11 12 13 14 15 16 
 17 19 21 22 23 25 26 27 28 29 31 32 
 34 
 34 
 1 2 3 4 5 6 7 8 9 10 11 12 
 13 14 15 16 17 18 19 20 21 22 23 24 
 25 26 27 28 29 31 32 33 34 35 
 29 
 1 3 4 5 6 7 8 10 11 12 13 14 
 15 16 17 18 19 20 22 23 25 27 29 30 
 31 32 33 34 35 
 28 
 1 2 3 4 5 6 8 9 10 13 14 15 
 16 17 18 19 20 21 22 24 27 29 30 31 
 32 33 34 35 
 7 
 5 6 10 16 24 32 33 
 17 
 2 4 5 6 9 11 13 14 16 23 24 25 
 26 29 32 33 34 
 34 
 1 2 3 4 5 6 7 8 9 10 11 12 
 13 14 15 16 17 19 20 21 22 23 24 25 
 26 27 28 29 30 31 32 33 34 35 
 14 
 3 7 10 13 15 20 21 23 24 25 26 27 
 30 33 
 14 
 2 3 4 5 6 14 18 20 23 24 27 29 
 33 34 
 21 
 1 2 4 5 6 7 8 12 14 15 19 21 
 23 24 25 26 27 28 30 32 33 
 34 
 1 2 3 4 5 6 7 8 9 10 11 12 
 13 14 15 16 17 18 20 21 22 23 24 25 
 26 27 28 29 30 31 32 33 34 35 
 2 
 22 27 
 3 
 26 27 31 
 11 
 3 4 6 11 13 14 17 24 25 29 35 
 17 
 5 6 8 9 10 12 13 16 17 19 21 23 
 25 28 29 32 35 
 8 
 3 7 10 12 17 24 27 34 
 33 
 1 2 3 4 5 6 7 8 9 10 11 12 
 13 14 15 16 17 18 19 20 21 22 24 25 
 26 27 28 29 30 31 32 33 34 
 25 
 3 4 6 7 8 9 10 11 12 13 14 15 
 16 19 20 22 23 24 25 27 28 31 33 34 
 35 
 28 
 1 2 3 4 5 6 7 8 9 11 12 13 
 14 16 17 18 19 20 23 24 25 26 28 29 
 31 32 34 35 
 30 
 1 2 3 4 5 6 7 8 10 11 12 13 
 14 15 16 17 19 20 22 24 25 26 27 28 
 30 31 32 33 34 35 
 10 
 6 8 12 13 16 23 24 26 30 32 
 18 
 3 4 5 6 7 12 19 20 21 22 23 24 
 27 28 29 31 33 34 
 15 
 2 3 4 5 8 12 13 16 18 20 22 23 
 25 29 32 
 35 
 1 2 3 4 5 6 7 8 9 10 11 12 
 13 14 15 16 17 18 19 20 21 22 23 24 
 25 26 27 28 29 30 31 32 33 34 35 
 14 
 2 3 5 14 16 18 20 21 24 26 27 30 
 32 34 
 25 
 2 4 5 8 9 10 12 13 15 16 19 20 
 21 22 23 24 25 27 28 29 30 32 33 34 
 35 
 15 
 1 3 4 6 10 12 14 15 16 17 23 25 
 26 28 33 
 17 
 2 4 7 9 11 12 13 15 18 21 23 24 
 26 27 28 32 34 
 6 
 1 6 13 14 17 29 
 24 
 2 4 6 7 8 9 10 11 13 15 16 17 
 19 20 21 23 24 27 29 30 31 33 34 35 
 28 
 1 2 3 4 5 6 8 9 10 11 13 15 
 16 17 18 19 21 22 23 24 25 26 27 28 
 29 30 32 35 
 5 
 4 8 9 17 21 
 24 
 1 2 3 4 5 6 7 9 10 12 13 14 
 15 18 20 21 23 24 27 29 30 31 34 35 
 23 
 2 3 5 6 7 8 9 13 14 16 18 19 
 21 22 23 24 25 26 27 29 30 32 34 
 13 
 4 5 9 10 11 19 20 22 24 28 30 32 
 33 
 30 
 1 2 3 4 5 6 7 8 11 12 13 14 
 15 17 19 20 21 22 23 24 25 26 27 28 
 29 30 31 32 34 35 
 16 
 1 2 4 6 8 9 10 16 21 23 24 25 
 26 31 32 33 
 14 
 4 5 6 12 13 18 20 21 22 26 27 28 
 32 35 
 17 
 1 4 7 8 9 10 12 15 16 17 18 23 
 29 30 31 33 34 
 30 
 1 2 3 4 5 6 7 8 10 11 12 13 
 14 16 17 18 19 20 21 22 24 25 26 27 
 28 30 31 32 34 35 
 5 
 11 15 21 22 35 
 32 
 1 2 3 4 5 6 7 8 9 10 11 12 
 13 14 16 17 18 19 20 21 22 23 24 25 
 28 29 30 31 32 33 34 35 
 11 
 1 4 5 11 17 19 25 27 30 32 33 
 13 
 1 2 3 4 7 8 9 10 15 16 33 34 
 35 
 30 
 1 2 3 4 5 6 7 8 9 10 11 12 
 14 15 16 17 19 20 21 22 23 25 28 29 
 30 31 32 33 34 35 
 33 
 1 2 3 4 5 6 7 8 9 10 11 12 
 13 14 15 16 17 19 20 21 22 23 24 25 
 26 28 29 30 31 32 33 34 35 
 25 
 1 2 3 4 5 7 8 9 10 11 12 14 
 18 20 21 22 23 24 25 28 29 30 31 34 
 35 
 8 
 1 12 15 16 19 22 34 35 
 12 
 3 4 6 7 10 17 18 21 26 30 33 34 
 19 
 1 2 7 10 11 14 15 16 17 18 19 21 
 22 24 25 26 27 30 35 
 2 
 14 31 
 17 
 2 6 8 9 11 13 16 18 20 23 25 26 
 27 28 31 32 35 
 26 
 1 4 5 6 8 9 10 11 12 13 14 16 
 17 18 19 20 22 23 24 27 28 29 31 32 
 33 35 
 9 
 2 4 6 8 11 12 20 26 35 
 8 
 5 7 8 10 16 17 18 24 
 15 
 3 4 8 11 13 16 17 19 20 27 29 31 
 32 34 35 
 2 
 1 21 
 29 
 2 3 4 5 6 7 8 9 10 11 13 14 
 15 17 18 19 21 22 23 24 25 26 28 30 
 31 32 33 34 35 
 33 
 1 2 3 6 7 8 9 10 11 12 13 14 
 15 16 17 18 19 20 21 22 23 24 25 26 
 27 28 29 30 31 32 33 34 35 
 31 
 1 3 4 5 6 7 8 10 12 13 14 15 
 16 17 18 19 20 21 22 23 24 26 27 28 
 29 30 31 32 33 34 35 
 16 
 2 4 6 7 11 15 18 22 25 26 27 28 
 29 31 33 34 
 20 
 1 2 4 5 6 7 8 9 13 14 18 24 
 25 26 27 29 30 31 32 35 
 23 
 1 2 3 4 5 7 8 10 11 13 15 17 
 18 20 21 23 24 26 27 28 30 33 34 
 25 
 1 2 5 6 7 10 11 12 13 15 16 17 
 19 20 21 22 23 24 26 27 29 32 33 34 
 35 
 2 
 1 22 
 27 
 2 3 5 7 8 9 10 12 14 15 16 17 
 18 19 20 22 23 24 25 26 27 29 30 32 
 33 34 35 
 31 
 1 2 4 5 6 7 8 9 10 11 12 13 
 14 15 16 18 19 20 21 22 24 25 26 27 
 29 30 31 32 33 34 35 
 21 
 2 3 5 6 7 8 10 15 17 18 19 20 
 21 23 25 27 28 30 31 33 35 
 7 
 3 5 7 8 14 24 34 
 2 
 3 34 
 19 
 1 3 6 7 8 9 10 11 12 13 14 15 
 16 18 21 22 25 26 28 
 14 
 1 6 7 15 16 18 19 21 22 24 30 32 
 34 35 
 15 
 2 6 9 13 14 17 21 22 24 25 26 28 
 30 32 33 
 31 
 1 2 3 4 5 6 7 8 9 10 11 12 
 13 14 15 17 18 19 20 21 22 26 27 28 
 29 30 31 32 33 34 35 
 12 
 1 5 8 9 17 19 24 25 26 28 33 34 
 14 
 7 11 12 17 18 19 20 22 27 29 30 32 
 34 35 
 5 
 1 6 10 22 32 
 5 
 7 25 29 34 35 
 16 
 8 11 12 13 16 17 18 19 23 24 25 27 
 28 29 30 33 
 32 
 1 2 4 5 6 8 9 10 11 12 13 14 
 15 16 17 19 20 21 22 23 24 25 26 27 
 28 29 30 31 32 33 34 35 
 15 
 3 4 6 12 13 18 22 24 26 27 28 29 
 31 34 35 
 21 
 1 3 4 7 8 9 12 13 14 15 16 18 
 20 24 25 26 31 32 33 34 35 
 22 
 2 3 4 5 6 7 8 9 10 11 12 13 
 16 17 20 21 24 26 27 28 32 33 
 35 
 1 2 3 4 5 6 7 8 9 10 11 12 
 13 14 15 16 17 18 19 20 21 22 23 24 
 25 26 27 28 29 30 31 32 33 34 35 
 29 
 2 3 4 5 6 8 9 10 11 12 14 15 
 17 18 19 20 21 23 24 25 26 27 28 29 
 31 32 33 34 35 
 31 
 1 2 3 4 5 6 7 8 10 11 12 15 
 16 17 18 19 20 22 23 24 25 26 27 28 
 29 30 31 32 33 34 35 
 3 
 1 22 30 
 3 
 2 5 27 
 13 
 1 4 5 7 9 10 15 20 22 25 31 32 
 33 
 19 
 1 2 3 4 6 7 8 11 12 14 15 16 
 18 21 25 27 28 30 33 
 11 
 1 3 5 8 20 23 24 26 27 28 33 
 18 
 1 4 8 9 14 15 16 17 18 20 22 24 
 26 27 29 30 31 34 
 11 
 8 14 18 21 24 26 27 29 30 31 32 
 6 
 3 6 14 25 32 33 
 23 
 2 3 4 7 8 9 11 12 15 16 17 19 
 20 22 23 24 25 27 28 29 30 33 34 
 28 
 1 2 3 4 5 6 7 8 9 11 12 13 
 15 16 17 18 19 20 21 22 24 25 26 27 
 30 31 32 33 
 7 
 9 10 19 21 25 26 27 
 21 
 2 4 6 8 9 10 13 14 15 16 17 18 
 22 23 24 25 26 27 31 33 35 
 13 
 5 6 9 10 13 18 20 21 22 24 30 32 
 35 
 4 
 2 18 25 33 
 21 
 1 2 7 8 9 10 12 14 15 16 18 19 
 20 21 24 25 26 29 32 34 35 
 12 
 1 10 12 15 19 22 26 27 30 31 32 34 
 7 
 2 7 17 23 24 31 32 
 9 
 2 8 10 11 16 17 29 31 33 
 12 
 2 4 6 7 9 10 14 19 21 22 25 34 
 13 
 2 9 12 13 14 15 19 20 23 24 28 33 
 35 
 15 
 1 2 4 6 10 13 14 15 17 18 20 28 
 30 34 35 
 31 
 1 2 3 4 5 6 7 8 9 10 11 12 
 13 15 16 17 18 19 20 21 23 25 26 28 
 29 30 31 32 33 34 35 
 12 
 1 11 13 14 17 19 21 23 25 26 32 34 
 9 
 2 8 13 17 18 26 28 32 34 
 6 
 1 5 14 15 22 30 
 4 
 12 13 15 19 
 14 
 1 3 5 8 9 14 16 20 22 23 26 28 
 32 33 
 4 
 15 20 33 34 
 24 
 1 2 5 6 7 8 9 12 16 17 18 20 
 21 22 25 26 27 28 29 30 31 33 34 35 
 23 
 1 4 5 6 8 9 10 13 15 17 20 21 
 22 23 25 26 27 28 29 30 33 34 35 
 34 
 1 2 3 4 5 6 7 8 9 10 11 12 
 13 14 15 16 17 19 20 21 22 23 24 25 
 26 27 28 29 30 31 32 33 34 35 
 17 
 1 4 5 6 7 8 9 13 14 15 17 18 
 19 22 26 29 31 
 14 
 2 4 7 9 10 14 18 19 21 24 26 27 
 31 35 
 30 
 2 3 4 6 8 9 10 11 12 13 14 15 
 16 17 18 19 20 21 22 23 24 25 26 27 
 28 29 30 31 32 34 
 26 
 1 2 3 4 5 6 7 9 10 11 12 13 
 14 15 16 20 21 22 23 24 25 26 28 30 
 34 35 
 5 
 15 22 24 31 33 
 28 
 1 3 5 6 7 8 9 10 12 14 15 16 
 17 18 19 20 22 24 25 26 28 29 30 31 
 32 33 34 35 
 26 
 1 2 4 6 7 8 9 10 11 12 13 15 
 17 18 19 20 21 22 25 26 27 29 30 31 
 33 35 
 29 
 1 2 3 4 5 6 8 10 11 12 14 15 
 16 17 18 20 21 22 23 24 25 27 29 30 
 31 32 33 34 35 
 17 
 2 4 10 11 14 16 18 19 20 21 23 25 
 29 30 31 32 33 
 17 
 3 8 11 12 14 15 16 18 21 22 24 27 
 28 31 33 34 35 
 33 
 1 2 3 4 5 6 7 8 9 10 11 12 
 13 14 15 16 18 19 20 21 22 23 24 25 
 26 27 29 30 31 32 33 34 35 
 32 
 1 2 3 4 5 6 7 8 9 10 11 12 
 13 14 15 16 17 18 19 20 22 23 24 25 
 26 27 28 29 30 32 34 35 
 34 
 1 2 3 4 6 7 8 9 10 11 12 13 
 14 15 16 17 18 19 20 21 22 23 24 25 
 26 27 28 29 30 31 32 33 34 35 
 12 
 3 7 14 15 17 19 20 24 27 31 34 35 
 7 
 5 9 18 19 20 29 33 
 32 
 1 2 3 4 5 6 7 8 9 10 11 12 
 13 14 15 16 17 19 20 21 22 24 25 26 
 27 28 29 30 32 33 34 35 
 9 
 2 3 14 18 19 23 24 27 28 
 15 
 1 5 7 11 13 14 16 17 19 26 28 30 
 31 32 34 
 33 
 1 2 3 5 6 7 8 9 10 11 12 13 
 14 15 16 17 18 19 21 22 23 24 25 26 
 27 28 29 30 31 32 33 34 35 
 24 
 2 3 6 7 8 14 15 16 17 18 19 20 
 22 24 25 26 27 28 29 30 31 32 33 35 
 6 
 14 20 22 25 31 32 
 18 
 2 4 6 7 16 19 20 21 22 23 24 25 
 26 27 29 31 32 34 
 35 
 1 2 3 4 5 6 7 8 9 10 11 12 
 13 14 15 16 17 18 19 20 21 22 23 24 
 25 26 27 28 29 30 31 32 33 34 35 
 26 
 2 3 4 5 6 7 11 12 13 14 15 17 
 18 19 20 21 22 23 24 25 26 27 29 33 
 34 35 
 9 
 1 5 6 8 12 13 14 15 24 
 21 
 1 2 3 5 7 8 11 12 13 14 15 16 
 18 23 24 25 28 29 30 31 32 
 